c numero: 7
c nombre: n-20-d-0.5
c densidad: 0.5
p edges 20 95
e 1 2
e 1 3
e 1 6
e 1 9
e 1 12
e 1 18
e 2 3
e 2 5
e 2 6
e 2 7
e 2 9
e 2 10
e 2 11
e 2 12
e 2 13
e 2 14
e 2 15
e 2 17
e 2 18
e 2 19
e 3 6
e 3 7
e 3 11
e 3 12
e 3 14
e 3 15
e 3 16
e 3 20
e 4 5
e 4 6
e 4 7
e 4 8
e 4 9
e 4 18
e 4 20
e 5 11
e 5 13
e 5 15
e 5 19
e 6 7
e 6 9
e 6 11
e 6 13
e 6 16
e 6 17
e 7 8
e 7 9
e 7 10
e 7 11
e 7 12
e 7 15
e 8 9
e 8 11
e 8 12
e 8 15
e 8 16
e 8 18
e 8 20
e 9 15
e 9 16
e 9 17
e 9 18
e 9 19
e 9 20
e 10 11
e 10 13
e 10 16
e 10 17
e 10 18
e 10 20
e 11 12
e 11 15
e 11 17
e 11 18
e 11 19
e 11 20
e 12 14
e 12 15
e 12 16
e 12 19
e 13 14
e 13 17
e 13 19
e 14 15
e 14 16
e 14 17
e 14 19
e 15 18
e 15 20
e 16 17
e 16 19
e 17 18
e 18 19
e 18 20
e 19 20
